NAME: oliver10
COMMENT : 10 locations
COMMENT : Best: 423.741
TYPE: TSP
DIMENSION: 10
EDGE_WEIGHT_TYPE: CITYU
NODE_COORD_SECTION
1 1 159
2 1 54
3 3 1581
4 4 1589
5 1 51
6 3 1571
7 2 1548
8 5 1611
9 2 1564
10 4 1588
